NAME CFLP
ROWS
 N  OBJ
 E  demand_1
 E  demand_2
 E  demand_3
 E  demand_4
 E  demand_5
 E  demand_6
 E  demand_7
 E  demand_8
 E  demand_9
 E  demand_10
 E  demand_11
 E  demand_12
 E  demand_13
 E  demand_14
 E  demand_15
 E  demand_16
 E  demand_17
 E  demand_18
 E  demand_19
 E  demand_20
 E  demand_21
 E  demand_22
 E  demand_23
 E  demand_24
 E  demand_25
 L  c_disjunction_1_diajunct_1
 L  c_disjunction_1_disjunct_2
 E  R27     
 L  c_disjunction_2_diajunct_1
 L  c_disjunction_2_disjunct_2
 E  R30     
 L  c_disjunction_3_diajunct_1
 L  c_disjunction_3_disjunct_2
 E  R33     
 L  c_disjunction_4_diajunct_1
 L  c_disjunction_4_disjunct_2
 E  R36     
 L  c_disjunction_5_diajunct_1
 L  c_disjunction_5_disjunct_2
 E  R39     
 L  c_disjunction_6_diajunct_1
 L  c_disjunction_6_disjunct_2
 E  R42     
 L  c_disjunction_7_diajunct_1
 L  c_disjunction_7_disjunct_2
 E  R45     
 L  c_disjunction_8_diajunct_1
 L  c_disjunction_8_disjunct_2
 E  R48     
 L  c_disjunction_9_diajunct_1
 L  c_disjunction_9_disjunct_2
 E  R51     
 L  c_disjunction_10_diajunct_1
 L  c_disjunction_10_disjunct_2
 E  R54     
 L  c_disjunction_11_diajunct_1
 L  c_disjunction_11_disjunct_2
 E  R57     
 L  c_disjunction_12_diajunct_1
 L  c_disjunction_12_disjunct_2
 E  R60     
 L  c_disjunction_13_diajunct_1
 L  c_disjunction_13_disjunct_2
 E  R63     
 L  c_disjunction_14_diajunct_1
 L  c_disjunction_14_disjunct_2
 E  R66     
 L  c_disjunction_15_diajunct_1
 L  c_disjunction_15_disjunct_2
 E  R69     
 L  c_disjunction_16_diajunct_1
 L  c_disjunction_16_disjunct_2
 E  R72     
 L  c_disjunction_17_diajunct_1
 L  c_disjunction_17_disjunct_2
 E  R75     
 L  c_disjunction_18_diajunct_1
 L  c_disjunction_18_disjunct_2
 E  R78     
 L  c_disjunction_19_diajunct_1
 L  c_disjunction_19_disjunct_2
 E  R81     
 L  c_disjunction_20_diajunct_1
 L  c_disjunction_20_disjunct_2
 E  R84     
 L  c_disjunction_21_diajunct_1
 L  c_disjunction_21_disjunct_2
 E  R87     
 L  c_disjunction_22_diajunct_1
 L  c_disjunction_22_disjunct_2
 E  R90     
 L  c_disjunction_23_diajunct_1
 L  c_disjunction_23_disjunct_2
 E  R93     
 L  c_disjunction_24_diajunct_1
 L  c_disjunction_24_disjunct_2
 E  R96     
 L  c_disjunction_25_diajunct_1
 L  c_disjunction_25_disjunct_2
 E  R99     
COLUMNS
    MARKER    'MARKER'                 'INTORG'
    ind_disjunction_1_disjunct_1  OBJ       1218
    ind_disjunction_1_disjunct_1  c_disjunction_1_diajunct_1  -126
    ind_disjunction_1_disjunct_1  R27       1
    ind_disjunction_2_disjunct_1  OBJ       1218
    ind_disjunction_2_disjunct_1  c_disjunction_2_diajunct_1  -126
    ind_disjunction_2_disjunct_1  R30       1
    ind_disjunction_3_disjunct_1  OBJ       1218
    ind_disjunction_3_disjunct_1  c_disjunction_3_diajunct_1  -126
    ind_disjunction_3_disjunct_1  R33       1
    ind_disjunction_4_disjunct_1  OBJ       1218
    ind_disjunction_4_disjunct_1  c_disjunction_4_diajunct_1  -126
    ind_disjunction_4_disjunct_1  R36       1
    ind_disjunction_5_disjunct_1  OBJ       1218
    ind_disjunction_5_disjunct_1  c_disjunction_5_diajunct_1  -126
    ind_disjunction_5_disjunct_1  R39       1
    ind_disjunction_6_disjunct_1  OBJ       1218
    ind_disjunction_6_disjunct_1  c_disjunction_6_diajunct_1  -126
    ind_disjunction_6_disjunct_1  R42       1
    ind_disjunction_7_disjunct_1  OBJ       1218
    ind_disjunction_7_disjunct_1  c_disjunction_7_diajunct_1  -126
    ind_disjunction_7_disjunct_1  R45       1
    ind_disjunction_8_disjunct_1  OBJ       1218
    ind_disjunction_8_disjunct_1  c_disjunction_8_diajunct_1  -126
    ind_disjunction_8_disjunct_1  R48       1
    ind_disjunction_9_disjunct_1  OBJ       1218
    ind_disjunction_9_disjunct_1  c_disjunction_9_diajunct_1  -126
    ind_disjunction_9_disjunct_1  R51       1
    ind_disjunction_10_disjunct_1  OBJ       1218
    ind_disjunction_10_disjunct_1  c_disjunction_10_diajunct_1  -126
    ind_disjunction_10_disjunct_1  R54       1
    ind_disjunction_11_disjunct_1  OBJ       1218
    ind_disjunction_11_disjunct_1  c_disjunction_11_diajunct_1  -126
    ind_disjunction_11_disjunct_1  R57       1
    ind_disjunction_12_disjunct_1  OBJ       1218
    ind_disjunction_12_disjunct_1  c_disjunction_12_diajunct_1  -126
    ind_disjunction_12_disjunct_1  R60       1
    ind_disjunction_13_disjunct_1  OBJ       1218
    ind_disjunction_13_disjunct_1  c_disjunction_13_diajunct_1  -126
    ind_disjunction_13_disjunct_1  R63       1
    ind_disjunction_14_disjunct_1  OBJ       1218
    ind_disjunction_14_disjunct_1  c_disjunction_14_diajunct_1  -126
    ind_disjunction_14_disjunct_1  R66       1
    ind_disjunction_15_disjunct_1  OBJ       1218
    ind_disjunction_15_disjunct_1  c_disjunction_15_diajunct_1  -126
    ind_disjunction_15_disjunct_1  R69       1
    ind_disjunction_16_disjunct_1  OBJ       1218
    ind_disjunction_16_disjunct_1  c_disjunction_16_diajunct_1  -126
    ind_disjunction_16_disjunct_1  R72       1
    ind_disjunction_17_disjunct_1  OBJ       1218
    ind_disjunction_17_disjunct_1  c_disjunction_17_diajunct_1  -126
    ind_disjunction_17_disjunct_1  R75       1
    ind_disjunction_18_disjunct_1  OBJ       1218
    ind_disjunction_18_disjunct_1  c_disjunction_18_diajunct_1  -126
    ind_disjunction_18_disjunct_1  R78       1
    ind_disjunction_19_disjunct_1  OBJ       1218
    ind_disjunction_19_disjunct_1  c_disjunction_19_diajunct_1  -126
    ind_disjunction_19_disjunct_1  R81       1
    ind_disjunction_20_disjunct_1  OBJ       1218
    ind_disjunction_20_disjunct_1  c_disjunction_20_diajunct_1  -126
    ind_disjunction_20_disjunct_1  R84       1
    ind_disjunction_21_disjunct_1  OBJ       1218
    ind_disjunction_21_disjunct_1  c_disjunction_21_diajunct_1  -126
    ind_disjunction_21_disjunct_1  R87       1
    ind_disjunction_22_disjunct_1  OBJ       1218
    ind_disjunction_22_disjunct_1  c_disjunction_22_diajunct_1  -126
    ind_disjunction_22_disjunct_1  R90       1
    ind_disjunction_23_disjunct_1  OBJ       1218
    ind_disjunction_23_disjunct_1  c_disjunction_23_diajunct_1  -126
    ind_disjunction_23_disjunct_1  R93       1
    ind_disjunction_24_disjunct_1  OBJ       1218
    ind_disjunction_24_disjunct_1  c_disjunction_24_diajunct_1  -126
    ind_disjunction_24_disjunct_1  R96       1
    ind_disjunction_25_disjunct_1  OBJ       1218
    ind_disjunction_25_disjunct_1  c_disjunction_25_diajunct_1  -126
    ind_disjunction_25_disjunct_1  R99       1
    ind_disjunction_1_disjunct_2  c_disjunction_1_disjunct_2  3
    ind_disjunction_1_disjunct_2  R27       1
    ind_disjunction_2_disjunct_2  c_disjunction_2_disjunct_2  1
    ind_disjunction_2_disjunct_2  R30       1
    ind_disjunction_3_disjunct_2  c_disjunction_3_disjunct_2  2
    ind_disjunction_3_disjunct_2  R33       1
    ind_disjunction_4_disjunct_2  c_disjunction_4_disjunct_2  3
    ind_disjunction_4_disjunct_2  R36       1
    ind_disjunction_5_disjunct_2  c_disjunction_5_disjunct_2  2
    ind_disjunction_5_disjunct_2  R39       1
    ind_disjunction_6_disjunct_2  c_disjunction_6_disjunct_2  2
    ind_disjunction_6_disjunct_2  R42       1
    ind_disjunction_7_disjunct_2  c_disjunction_7_disjunct_2  2
    ind_disjunction_7_disjunct_2  R45       1
    ind_disjunction_8_disjunct_2  c_disjunction_8_disjunct_2  3
    ind_disjunction_8_disjunct_2  R48       1
    ind_disjunction_9_disjunct_2  c_disjunction_9_disjunct_2  3
    ind_disjunction_9_disjunct_2  R51       1
    ind_disjunction_10_disjunct_2  c_disjunction_10_disjunct_2  3
    ind_disjunction_10_disjunct_2  R54       1
    ind_disjunction_11_disjunct_2  c_disjunction_11_disjunct_2  1
    ind_disjunction_11_disjunct_2  R57       1
    ind_disjunction_12_disjunct_2  c_disjunction_12_disjunct_2  1
    ind_disjunction_12_disjunct_2  R60       1
    ind_disjunction_13_disjunct_2  c_disjunction_13_disjunct_2  3
    ind_disjunction_13_disjunct_2  R63       1
    ind_disjunction_14_disjunct_2  c_disjunction_14_disjunct_2  2
    ind_disjunction_14_disjunct_2  R66       1
    ind_disjunction_15_disjunct_2  c_disjunction_15_disjunct_2  1
    ind_disjunction_15_disjunct_2  R69       1
    ind_disjunction_16_disjunct_2  c_disjunction_16_disjunct_2  1
    ind_disjunction_16_disjunct_2  R72       1
    ind_disjunction_17_disjunct_2  c_disjunction_17_disjunct_2  2
    ind_disjunction_17_disjunct_2  R75       1
    ind_disjunction_18_disjunct_2  c_disjunction_18_disjunct_2  3
    ind_disjunction_18_disjunct_2  R78       1
    ind_disjunction_19_disjunct_2  c_disjunction_19_disjunct_2  1
    ind_disjunction_19_disjunct_2  R81       1
    ind_disjunction_20_disjunct_2  c_disjunction_20_disjunct_2  1
    ind_disjunction_20_disjunct_2  R84       1
    ind_disjunction_21_disjunct_2  c_disjunction_21_disjunct_2  2
    ind_disjunction_21_disjunct_2  R87       1
    ind_disjunction_22_disjunct_2  c_disjunction_22_disjunct_2  1
    ind_disjunction_22_disjunct_2  R90       1
    ind_disjunction_23_disjunct_2  c_disjunction_23_disjunct_2  2
    ind_disjunction_23_disjunct_2  R93       1
    ind_disjunction_24_disjunct_2  c_disjunction_24_disjunct_2  2
    ind_disjunction_24_disjunct_2  R96       1
    ind_disjunction_25_disjunct_2  c_disjunction_25_disjunct_2  3
    ind_disjunction_25_disjunct_2  R99       1
    x[1,1]    demand_1  1
    x[1,1]    c_disjunction_1_diajunct_1  32
    x[1,1]    c_disjunction_1_disjunct_2  1
    x[14,1]   OBJ       29.7
    x[14,1]   demand_1  1
    x[14,1]   c_disjunction_14_diajunct_1  32
    x[14,1]   c_disjunction_14_disjunct_2  1
    x[2,2]    demand_2  1
    x[2,2]    c_disjunction_2_diajunct_1  13
    x[2,2]    c_disjunction_2_disjunct_2  1
    x[13,2]   OBJ       19.4
    x[13,2]   demand_2  1
    x[13,2]   c_disjunction_13_diajunct_1  13
    x[13,2]   c_disjunction_13_disjunct_2  1
    x[3,3]    demand_3  1
    x[3,3]    c_disjunction_3_diajunct_1  11
    x[3,3]    c_disjunction_3_disjunct_2  1
    x[25,3]   OBJ       4.2
    x[25,3]   demand_3  1
    x[25,3]   c_disjunction_25_diajunct_1  11
    x[25,3]   c_disjunction_25_disjunct_2  1
    x[4,4]    demand_4  1
    x[4,4]    c_disjunction_4_diajunct_1  20
    x[4,4]    c_disjunction_4_disjunct_2  1
    x[24,4]   OBJ       14.4
    x[24,4]   demand_4  1
    x[24,4]   c_disjunction_24_diajunct_1  20
    x[24,4]   c_disjunction_24_disjunct_2  1
    x[5,5]    demand_5  1
    x[5,5]    c_disjunction_5_diajunct_1  19
    x[5,5]    c_disjunction_5_disjunct_2  1
    x[13,5]   OBJ       26.7
    x[13,5]   demand_5  1
    x[13,5]   c_disjunction_13_diajunct_1  19
    x[13,5]   c_disjunction_13_disjunct_2  1
    x[6,6]    demand_6  1
    x[6,6]    c_disjunction_6_diajunct_1  22
    x[6,6]    c_disjunction_6_disjunct_2  1
    x[9,6]    OBJ       37.3
    x[9,6]    demand_6  1
    x[9,6]    c_disjunction_9_diajunct_1  22
    x[9,6]    c_disjunction_9_disjunct_2  1
    x[7,7]    demand_7  1
    x[7,7]    c_disjunction_7_diajunct_1  34
    x[7,7]    c_disjunction_7_disjunct_2  1
    x[25,7]   OBJ       36.1
    x[25,7]   demand_7  1
    x[25,7]   c_disjunction_25_diajunct_1  34
    x[25,7]   c_disjunction_25_disjunct_2  1
    x[8,8]    demand_8  1
    x[8,8]    c_disjunction_8_diajunct_1  33
    x[8,8]    c_disjunction_8_disjunct_2  1
    x[10,8]   OBJ       40.6
    x[10,8]   demand_8  1
    x[10,8]   c_disjunction_10_diajunct_1  33
    x[10,8]   c_disjunction_10_disjunct_2  1
    x[9,9]    demand_9  1
    x[9,9]    c_disjunction_9_diajunct_1  14
    x[9,9]    c_disjunction_9_disjunct_2  1
    x[6,9]    OBJ       23.7
    x[6,9]    demand_9  1
    x[6,9]    c_disjunction_6_diajunct_1  14
    x[6,9]    c_disjunction_6_disjunct_2  1
    x[10,10]  demand_10  1
    x[10,10]  c_disjunction_10_diajunct_1  32
    x[10,10]  c_disjunction_10_disjunct_2  1
    x[8,10]   OBJ       39.3
    x[8,10]   demand_10  1
    x[8,10]   c_disjunction_8_diajunct_1  32
    x[8,10]   c_disjunction_8_disjunct_2  1
    x[11,11]  demand_11  1
    x[11,11]  c_disjunction_11_diajunct_1  26
    x[11,11]  c_disjunction_11_disjunct_2  1
    x[8,11]   OBJ       42.1
    x[8,11]   demand_11  1
    x[8,11]   c_disjunction_8_diajunct_1  26
    x[8,11]   c_disjunction_8_disjunct_2  1
    x[12,12]  demand_12  1
    x[12,12]  c_disjunction_12_diajunct_1  18
    x[12,12]  c_disjunction_12_disjunct_2  1
    x[18,12]  OBJ       32.9
    x[18,12]  demand_12  1
    x[18,12]  c_disjunction_18_diajunct_1  18
    x[18,12]  c_disjunction_18_disjunct_2  1
    x[13,13]  demand_13  1
    x[13,13]  c_disjunction_13_diajunct_1  16
    x[13,13]  c_disjunction_13_disjunct_2  1
    x[5,13]   OBJ       22.5
    x[5,13]   demand_13  1
    x[5,13]   c_disjunction_5_diajunct_1  16
    x[5,13]   c_disjunction_5_disjunct_2  1
    x[14,14]  demand_14  1
    x[14,14]  c_disjunction_14_diajunct_1  27
    x[14,14]  c_disjunction_14_disjunct_2  1
    x[1,14]   OBJ       25.1
    x[1,14]   demand_14  1
    x[1,14]   c_disjunction_1_diajunct_1  27
    x[1,14]   c_disjunction_1_disjunct_2  1
    x[15,15]  demand_15  1
    x[15,15]  c_disjunction_15_diajunct_1  24
    x[15,15]  c_disjunction_15_disjunct_2  1
    x[4,15]   OBJ       28.4
    x[4,15]   demand_15  1
    x[4,15]   c_disjunction_4_diajunct_1  24
    x[4,15]   c_disjunction_4_disjunct_2  1
    x[16,16]  demand_16  1
    x[16,16]  c_disjunction_16_diajunct_1  15
    x[16,16]  c_disjunction_16_disjunct_2  1
    x[9,16]   OBJ       37.3
    x[9,16]   demand_16  1
    x[9,16]   c_disjunction_9_diajunct_1  15
    x[9,16]   c_disjunction_9_disjunct_2  1
    x[17,17]  demand_17  1
    x[17,17]  c_disjunction_17_diajunct_1  15
    x[17,17]  c_disjunction_17_disjunct_2  1
    x[18,17]  OBJ       22.7
    x[18,17]  demand_17  1
    x[18,17]  c_disjunction_18_diajunct_1  15
    x[18,17]  c_disjunction_18_disjunct_2  1
    x[18,18]  demand_18  1
    x[18,18]  c_disjunction_18_diajunct_1  11
    x[18,18]  c_disjunction_18_disjunct_2  1
    x[17,18]  OBJ       16.6
    x[17,18]  demand_18  1
    x[17,18]  c_disjunction_17_diajunct_1  11
    x[17,18]  c_disjunction_17_disjunct_2  1
    x[19,19]  demand_19  1
    x[19,19]  c_disjunction_19_diajunct_1  34
    x[19,19]  c_disjunction_19_disjunct_2  1
    x[1,19]   OBJ       49
    x[1,19]   demand_19  1
    x[1,19]   c_disjunction_1_diajunct_1  34
    x[1,19]   c_disjunction_1_disjunct_2  1
    x[20,20]  demand_20  1
    x[20,20]  c_disjunction_20_diajunct_1  27
    x[20,20]  c_disjunction_20_disjunct_2  1
    x[7,20]   OBJ       45.4
    x[7,20]   demand_20  1
    x[7,20]   c_disjunction_7_diajunct_1  27
    x[7,20]   c_disjunction_7_disjunct_2  1
    x[21,21]  demand_21  1
    x[21,21]  c_disjunction_21_diajunct_1  20
    x[21,21]  c_disjunction_21_disjunct_2  1
    x[23,21]  OBJ       13
    x[23,21]  demand_21  1
    x[23,21]  c_disjunction_23_diajunct_1  20
    x[23,21]  c_disjunction_23_disjunct_2  1
    x[22,22]  demand_22  1
    x[22,22]  c_disjunction_22_diajunct_1  14
    x[22,22]  c_disjunction_22_disjunct_2  1
    x[10,22]  OBJ       18.1
    x[10,22]  demand_22  1
    x[10,22]  c_disjunction_10_diajunct_1  14
    x[10,22]  c_disjunction_10_disjunct_2  1
    x[23,23]  demand_23  1
    x[23,23]  c_disjunction_23_diajunct_1  22
    x[23,23]  c_disjunction_23_disjunct_2  1
    x[21,23]  OBJ       14.3
    x[21,23]  demand_23  1
    x[21,23]  c_disjunction_21_diajunct_1  22
    x[21,23]  c_disjunction_21_disjunct_2  1
    x[24,24]  demand_24  1
    x[24,24]  c_disjunction_24_diajunct_1  9
    x[24,24]  c_disjunction_24_disjunct_2  1
    x[4,24]   OBJ       6.5
    x[4,24]   demand_24  1
    x[4,24]   c_disjunction_4_diajunct_1  9
    x[4,24]   c_disjunction_4_disjunct_2  1
    x[25,25]  demand_25  1
    x[25,25]  c_disjunction_25_diajunct_1  19
    x[25,25]  c_disjunction_25_disjunct_2  1
    x[3,25]   OBJ       7.2
    x[3,25]   demand_25  1
    x[3,25]   c_disjunction_3_diajunct_1  19
    x[3,25]   c_disjunction_3_disjunct_2  1
    MARKER    'MARKER'                 'INTEND'
RHS
    RHS1      demand_1  1
    RHS1      demand_2  1
    RHS1      demand_3  1
    RHS1      demand_4  1
    RHS1      demand_5  1
    RHS1      demand_6  1
    RHS1      demand_7  1
    RHS1      demand_8  1
    RHS1      demand_9  1
    RHS1      demand_10  1
    RHS1      demand_11  1
    RHS1      demand_12  1
    RHS1      demand_13  1
    RHS1      demand_14  1
    RHS1      demand_15  1
    RHS1      demand_16  1
    RHS1      demand_17  1
    RHS1      demand_18  1
    RHS1      demand_19  1
    RHS1      demand_20  1
    RHS1      demand_21  1
    RHS1      demand_22  1
    RHS1      demand_23  1
    RHS1      demand_24  1
    RHS1      demand_25  1
    RHS1      c_disjunction_1_disjunct_2  3
    RHS1      R27       1
    RHS1      c_disjunction_2_disjunct_2  1
    RHS1      R30       1
    RHS1      c_disjunction_3_disjunct_2  2
    RHS1      R33       1
    RHS1      c_disjunction_4_disjunct_2  3
    RHS1      R36       1
    RHS1      c_disjunction_5_disjunct_2  2
    RHS1      R39       1
    RHS1      c_disjunction_6_disjunct_2  2
    RHS1      R42       1
    RHS1      c_disjunction_7_disjunct_2  2
    RHS1      R45       1
    RHS1      c_disjunction_8_disjunct_2  3
    RHS1      R48       1
    RHS1      c_disjunction_9_disjunct_2  3
    RHS1      R51       1
    RHS1      c_disjunction_10_disjunct_2  3
    RHS1      R54       1
    RHS1      c_disjunction_11_disjunct_2  1
    RHS1      R57       1
    RHS1      c_disjunction_12_disjunct_2  1
    RHS1      R60       1
    RHS1      c_disjunction_13_disjunct_2  3
    RHS1      R63       1
    RHS1      c_disjunction_14_disjunct_2  2
    RHS1      R66       1
    RHS1      c_disjunction_15_disjunct_2  1
    RHS1      R69       1
    RHS1      c_disjunction_16_disjunct_2  1
    RHS1      R72       1
    RHS1      c_disjunction_17_disjunct_2  2
    RHS1      R75       1
    RHS1      c_disjunction_18_disjunct_2  3
    RHS1      R78       1
    RHS1      c_disjunction_19_disjunct_2  1
    RHS1      R81       1
    RHS1      c_disjunction_20_disjunct_2  1
    RHS1      R84       1
    RHS1      c_disjunction_21_disjunct_2  2
    RHS1      R87       1
    RHS1      c_disjunction_22_disjunct_2  1
    RHS1      R90       1
    RHS1      c_disjunction_23_disjunct_2  2
    RHS1      R93       1
    RHS1      c_disjunction_24_disjunct_2  2
    RHS1      R96       1
    RHS1      c_disjunction_25_disjunct_2  3
    RHS1      R99       1
BOUNDS
 BV BND1      ind_disjunction_1_disjunct_1
 BV BND1      ind_disjunction_2_disjunct_1
 BV BND1      ind_disjunction_3_disjunct_1
 BV BND1      ind_disjunction_4_disjunct_1
 BV BND1      ind_disjunction_5_disjunct_1
 BV BND1      ind_disjunction_6_disjunct_1
 BV BND1      ind_disjunction_7_disjunct_1
 BV BND1      ind_disjunction_8_disjunct_1
 BV BND1      ind_disjunction_9_disjunct_1
 BV BND1      ind_disjunction_10_disjunct_1
 BV BND1      ind_disjunction_11_disjunct_1
 BV BND1      ind_disjunction_12_disjunct_1
 BV BND1      ind_disjunction_13_disjunct_1
 BV BND1      ind_disjunction_14_disjunct_1
 BV BND1      ind_disjunction_15_disjunct_1
 BV BND1      ind_disjunction_16_disjunct_1
 BV BND1      ind_disjunction_17_disjunct_1
 BV BND1      ind_disjunction_18_disjunct_1
 BV BND1      ind_disjunction_19_disjunct_1
 BV BND1      ind_disjunction_20_disjunct_1
 BV BND1      ind_disjunction_21_disjunct_1
 BV BND1      ind_disjunction_22_disjunct_1
 BV BND1      ind_disjunction_23_disjunct_1
 BV BND1      ind_disjunction_24_disjunct_1
 BV BND1      ind_disjunction_25_disjunct_1
 BV BND1      ind_disjunction_1_disjunct_2
 BV BND1      ind_disjunction_2_disjunct_2
 BV BND1      ind_disjunction_3_disjunct_2
 BV BND1      ind_disjunction_4_disjunct_2
 BV BND1      ind_disjunction_5_disjunct_2
 BV BND1      ind_disjunction_6_disjunct_2
 BV BND1      ind_disjunction_7_disjunct_2
 BV BND1      ind_disjunction_8_disjunct_2
 BV BND1      ind_disjunction_9_disjunct_2
 BV BND1      ind_disjunction_10_disjunct_2
 BV BND1      ind_disjunction_11_disjunct_2
 BV BND1      ind_disjunction_12_disjunct_2
 BV BND1      ind_disjunction_13_disjunct_2
 BV BND1      ind_disjunction_14_disjunct_2
 BV BND1      ind_disjunction_15_disjunct_2
 BV BND1      ind_disjunction_16_disjunct_2
 BV BND1      ind_disjunction_17_disjunct_2
 BV BND1      ind_disjunction_18_disjunct_2
 BV BND1      ind_disjunction_19_disjunct_2
 BV BND1      ind_disjunction_20_disjunct_2
 BV BND1      ind_disjunction_21_disjunct_2
 BV BND1      ind_disjunction_22_disjunct_2
 BV BND1      ind_disjunction_23_disjunct_2
 BV BND1      ind_disjunction_24_disjunct_2
 BV BND1      ind_disjunction_25_disjunct_2
 BV BND1      x[1,1]  
 BV BND1      x[14,1] 
 BV BND1      x[2,2]  
 BV BND1      x[13,2] 
 BV BND1      x[3,3]  
 BV BND1      x[25,3] 
 BV BND1      x[4,4]  
 BV BND1      x[24,4] 
 BV BND1      x[5,5]  
 BV BND1      x[13,5] 
 BV BND1      x[6,6]  
 BV BND1      x[9,6]  
 BV BND1      x[7,7]  
 BV BND1      x[25,7] 
 BV BND1      x[8,8]  
 BV BND1      x[10,8] 
 BV BND1      x[9,9]  
 BV BND1      x[6,9]  
 BV BND1      x[10,10]
 BV BND1      x[8,10] 
 BV BND1      x[11,11]
 BV BND1      x[8,11] 
 BV BND1      x[12,12]
 BV BND1      x[18,12]
 BV BND1      x[13,13]
 BV BND1      x[5,13] 
 BV BND1      x[14,14]
 BV BND1      x[1,14] 
 BV BND1      x[15,15]
 BV BND1      x[4,15] 
 BV BND1      x[16,16]
 BV BND1      x[9,16] 
 BV BND1      x[17,17]
 BV BND1      x[18,17]
 BV BND1      x[18,18]
 BV BND1      x[17,18]
 BV BND1      x[19,19]
 BV BND1      x[1,19] 
 BV BND1      x[20,20]
 BV BND1      x[7,20] 
 BV BND1      x[21,21]
 BV BND1      x[23,21]
 BV BND1      x[22,22]
 BV BND1      x[10,22]
 BV BND1      x[23,23]
 BV BND1      x[21,23]
 BV BND1      x[24,24]
 BV BND1      x[4,24] 
 BV BND1      x[25,25]
 BV BND1      x[3,25] 
ENDATA
